20
5	244	108	35	2
47	228	51	38	57
34	223	384	85	24
32	176	513	88	55
42	32	210	68	63
22	446	204	68	0
20	169	308	84	62
25	298	582	24	5
25	290	360	89	10
32	45	362	81	51
11	382	596	36	96
38	126	182	86	38
1	146	524	33	47
25	309	210	66	40
10	414	221	87	90
27	440	301	74	48
27	359	563	58	96
14	369	308	38	24
32	124	8	7	31
11	463	544	15	52
